Reading model...
...model read.
creating competitive generators file...
...competitive generators recorded.
Loading data...
.. real-time data read.
Compiling instance...
...instance created.
Creating Offer Mitigation (model will solve as dispatch if TRUE)...
...storage offer mitigation file created
Converting model to MPEC...
...converted
NOTE: initial MIP solve with only storage competitive to get feasible solution
Solving...

Welcome to IBM(R) ILOG(R) CPLEX(R) Interactive Optimizer 12.9.0.0
  with Simplex, Mixed Integer & Barrier Optimizers
5725-A06 5725-A29 5724-Y48 5724-Y49 5724-Y54 5724-Y55 5655-Y21
Copyright IBM Corp. 1988, 2019.  All Rights Reserved.

Type 'help' for a list of available commands.
Type 'help' followed by a command name for more
information on commands.

CPLEX> Logfile 'cplex.log' closed.
Logfile 'C:\Users\llavin\Desktop\test826\logs\tmpmal4ptpq.cplex.log' open.
CPLEX> New value for parallel optimization mode: -1
CPLEX> New value for mixed integer optimality gap tolerance: 0.001
CPLEX> New value for feasibility tolerance: 1e-09
CPLEX> New value for deterministic time limit in ticks: 150000
CPLEX> Problem 'C:\Users\llavin\Desktop\test826\logs\tmp3wy7_pmd.pyomo.lp' read.
Read time = 0.53 sec. (28.52 ticks)
CPLEX> Problem name         : C:\Users\llavin\Desktop\test826\logs\tmp3wy7_pmd.pyomo.lp
Objective sense      : Maximize
Variables            :  107781  [Nneg: 1,  Box: 44056,  Free: 8928,
                                 Binary: 54796]
Objective nonzeros   :   17377
Linear constraints   :  246901  [Less: 82866,  Greater: 118424,  Equal: 45611]
  Nonzeros           :  618077
  RHS nonzeros       :  134883

Variables            : Min LB: -5000.000        Max UB: 1000000.       
Objective nonzeros   : Min   : 0.1944444        Max   : 3000.000       
Linear constraints   :
  Nonzeros           : Min   : 0.1944444        Max   : 1000000.       
  RHS nonzeros       : Min   : 0.1944444        Max   : 1000000.       
CPLEX> CPXPARAM_Parallel                                -1
CPXPARAM_Simplex_Tolerances_Feasibility          1.0000000000000001e-09
CPXPARAM_DetTimeLimit                            150000
CPXPARAM_MIP_Tolerances_MIPGap                   0.001
Tried aggregator 3 times.
MIP Presolve eliminated 181420 rows and 41454 columns.
MIP Presolve added 6048 rows and 0 columns.
MIP Presolve modified 50771 coefficients.
Aggregator did 25909 substitutions.
Reduced MIP has 45620 rows, 38786 columns, and 155838 nonzeros.
Reduced MIP has 15280 binaries, 0 generals, 0 SOSs, and 0 indicators.
Presolve time = 0.66 sec. (384.09 ticks)
Probing fixed 817 vars, tightened 8543 bounds.
Probing time = 0.36 sec. (14.53 ticks)
Tried aggregator 2 times.
MIP Presolve eliminated 1826 rows and 1634 columns.
MIP Presolve modified 5376 coefficients.
Aggregator did 48 substitutions.
Reduced MIP has 43746 rows, 37104 columns, and 150339 nonzeros.
Reduced MIP has 14463 binaries, 0 generals, 0 SOSs, and 0 indicators.
Presolve time = 0.25 sec. (219.94 ticks)
Probing fixed 0 vars, tightened 399 bounds.
Probing time = 0.50 sec. (15.53 ticks)
Clique table members: 86593.
MIP emphasis: balance optimality and feasibility.
MIP search method: dynamic search.
Parallel mode: opportunistic, using up to 32 threads.
Root relaxation solution time = 0.94 sec. (1668.70 ticks)

        Nodes                                         Cuts/
   Node  Left     Objective  IInf  Best Integer    Best Bound    ItCnt     Gap

      0     0        0.0000     1                      0.0000     8881         
*     0+    0                            0.0000        0.0000             0.00%
      0     0        cutoff              0.0000        0.0000     8881    0.00%
Elapsed time = 3.42 sec. (2768.72 ticks, tree = 0.01 MB, solutions = 1)

Root node processing (before b&c):
  Real time             =    3.45 sec. (2772.60 ticks)
Parallel b&c, 32 threads:
  Real time             =    0.00 sec. (0.00 ticks)
  Sync time (average)   =    0.00 sec.
  Wait time (average)   =    0.00 sec.
                          ------------
Total (root+branch&cut) =    3.45 sec. (2772.60 ticks)

Solution pool: 1 solution saved.

MIP - Integer optimal solution:  Objective =  0.0000000000e+00
Solution time =    3.48 sec.  Iterations = 8881  Nodes = 0
Deterministic time = 2772.91 ticks  (795.90 ticks/sec)

CPLEX> Incumbent solution written to file 'C:\Users\llavin\Desktop\test826\logs\tmphw51zm3a.cplex.sol'.
CPLEX> NOTE: no warmstart specified for MIP iteration, default behavior is true
NOTE: resolving with all competitive generators using storage-only solution to warmstart
Solving...

Welcome to IBM(R) ILOG(R) CPLEX(R) Interactive Optimizer 12.9.0.0
  with Simplex, Mixed Integer & Barrier Optimizers
5725-A06 5725-A29 5724-Y48 5724-Y49 5724-Y54 5724-Y55 5655-Y21
Copyright IBM Corp. 1988, 2019.  All Rights Reserved.

Type 'help' for a list of available commands.
Type 'help' followed by a command name for more
information on commands.

CPLEX> Logfile 'cplex.log' closed.
Logfile 'C:\Users\llavin\Desktop\test826\logs\tmpimi468hj.cplex.log' open.
CPLEX> New value for parallel optimization mode: -1
CPLEX> New value for mixed integer optimality gap tolerance: 0.001
CPLEX> New value for feasibility tolerance: 1e-09
CPLEX> New value for deterministic time limit in ticks: 150000
CPLEX> Problem 'C:\Users\llavin\Desktop\test826\logs\tmp0xdgkalg.pyomo.lp' read.
Read time = 0.53 sec. (28.56 ticks)
CPLEX> MIP start file 'C:\Users\llavin\Desktop\test826\logs\tmpdc29yjmg.cplex.mst' read.
CPLEX> Problem name         : C:\Users\llavin\Desktop\test826\logs\tmp0xdgkalg.pyomo.lp
Objective sense      : Maximize
Variables            :  109221  [Nneg: 1,  Box: 45496,  Free: 8928,
                                 Binary: 54796]
Objective nonzeros   :   18769
Linear constraints   :  246901  [Less: 82866,  Greater: 118424,  Equal: 45611]
  Nonzeros           :  618077
  RHS nonzeros       :  134883

Variables            : Min LB: -5000.000        Max UB: 1000000.       
Objective nonzeros   : Min   : 0.1944444        Max   : 3000.000       
Linear constraints   :
  Nonzeros           : Min   : 0.1944444        Max   : 1000000.       
  RHS nonzeros       : Min   : 0.1944444        Max   : 1000000.       
CPLEX> CPXPARAM_Parallel                                -1
CPXPARAM_Simplex_Tolerances_Feasibility          1.0000000000000001e-09
CPXPARAM_DetTimeLimit                            150000
CPXPARAM_MIP_Tolerances_MIPGap                   0.001
1 of 1 MIP starts provided solutions.
MIP start 'm1' defined initial solution with objective 0.0000.
Tried aggregator 3 times.
MIP Presolve eliminated 181420 rows and 42894 columns.
MIP Presolve added 6048 rows and 0 columns.
MIP Presolve modified 50771 coefficients.
Aggregator did 25909 substitutions.
Reduced MIP has 45620 rows, 38786 columns, and 155838 nonzeros.
Reduced MIP has 15280 binaries, 0 generals, 0 SOSs, and 0 indicators.
Presolve time = 0.66 sec. (384.80 ticks)
Probing fixed 817 vars, tightened 8543 bounds.
Probing time = 0.38 sec. (14.53 ticks)
Tried aggregator 2 times.
MIP Presolve eliminated 1826 rows and 1634 columns.
MIP Presolve modified 5376 coefficients.
Aggregator did 48 substitutions.
Reduced MIP has 43746 rows, 37104 columns, and 150339 nonzeros.
Reduced MIP has 14463 binaries, 0 generals, 0 SOSs, and 0 indicators.
Presolve time = 0.25 sec. (219.95 ticks)
Probing fixed 0 vars, tightened 393 bounds.
Probing time = 0.52 sec. (15.46 ticks)
Clique table members: 86963.
MIP emphasis: balance optimality and feasibility.
MIP search method: dynamic search.
Parallel mode: opportunistic, using up to 32 threads.
Root relaxation solution time = 1.09 sec. (1774.47 ticks)

        Nodes                                         Cuts/
   Node  Left     Objective  IInf  Best Integer    Best Bound    ItCnt     Gap

*     0+    0                            0.0000  9461748.9777              --- 
      0     0    13542.2324   429        0.0000    13542.2324     9400     --- 
      0     0    13465.8306   304        0.0000     Cuts: 303     9716     --- 
      0     0    13465.8306   352        0.0000     Cuts: 472     9896     --- 
      0     0    13465.8306   173        0.0000     Cuts: 441     9974     --- 
      0     0    13465.8306   178        0.0000     Cuts: 139    10049     --- 
      0     6        cutoff              0.0000      Cuts: 20    10447     --- 
Elapsed time = 11.89 sec. (6113.60 ticks, tree = 0.02 MB, solutions = 1)
    237    66    12143.2022    52        0.0000    12502.0459    12267     --- 
    470   199     7477.9470    58        0.0000    12502.0459    15862     --- 
    730   278     8362.8677    42        0.0000    12502.0459    17288     --- 
   1021   362     4214.6048    43        0.0000    12502.0459    19760     --- 
   1229   716     2579.1081    23        0.0000    12502.0459    26568     --- 
   1438   758      643.6425     6        0.0000    12502.0459    27335     --- 
   1726   866        cutoff              0.0000    12502.0459    29017     --- 
   2044   767      201.1910     2        0.0000    12502.0459    27494     --- 
   2403   978     1167.4406    10        0.0000    12502.0459    31338     --- 
   3812  1734      446.3998    11        0.0000    12400.6041    43040     --- 
Elapsed time = 31.70 sec. (9219.28 ticks, tree = 18.51 MB, solutions = 1)
   5076  2690      269.6099     4        0.0000    10878.1581    60456     --- 
   7620  2380      648.8579     5        0.0000     3866.3832    94817     --- 
*  7837  1102      integral     0        0.0000        0.0000   105523    0.00%

Cover cuts applied:  3
Implied bound cuts applied:  58
Flow cuts applied:  333
Mixed integer rounding cuts applied:  69
Gomory fractional cuts applied:  29

Root node processing (before b&c):
  Real time             =    8.05 sec. (6075.21 ticks)
Parallel b&c, 32 threads:
  Real time             =   38.11 sec. (8476.38 ticks)
  Sync time (average)   =    3.18 sec.
  Wait time (average)   =    0.00 sec.
                          ------------
Total (root+branch&cut) =   46.16 sec. (14551.59 ticks)

Solution pool: 1 solution saved.

MIP - Integer optimal solution:  Objective =  0.0000000000e+00
Solution time =   46.19 sec.  Iterations = 105523  Nodes = 7837
Deterministic time = 14551.90 ticks  (315.06 ticks/sec)

CPLEX> Incumbent solution written to file 'C:\Users\llavin\Desktop\test826\logs\tmphyqky21_.cplex.sol'.
CPLEX> Exporting results... 
